71 71
26 9
71 25
65 30
57 16
21 15
68 31
62 6
15 31
38 27
4 21
14 1
53 30
27 3
59 13
6 8
60 17
29 24
20 7
30 9
41 20
39 36
13 4
36 1
10 17
1 11
31 35
69 26
52 4
51 6
66 2
12 27
7 5
17 18
40 23
28 19
44 34
18 14
43 26
49 7
24 24
64 15
9 10
16 3
70 23
63 35
2 12
22 33
5 19
42 11
33 29
34 21
19 32
54 32
11 10
32 25
3 14
45 2
61 18
55 34
35 8
56 28
25 29
67 16
37 33
23 5
48 12
46 28
8 20
58 22
47 22
50 13
